c turning on binary mode checking
c parsing input formula with 259840 variables and 1039919 clauses
c finished parsing, read 27990318 bytes from proof file
c detected empty clause; start verification via backward checking
c 28075 of 1039919 clauses in core                            
c 40278 of 678431 lemmas in core using 322007 resolution steps
c 0 RAT lemmas in core; 3101 redundant literals in core lemmas
s VERIFIED
c verification time: 3.529 seconds
